p cnf 10 50
8 -10 -1 0
-2 -4 -10 0
-3 7 2 0
4 8 -3 0
-1 -9 5 0
-3 -6 -1 0
10 -8 7 0
7 -1 -9 0
2 3 4 0
7 3 -10 0
5 -10 8 0
-6 -5 10 0
-9 -6 -10 0
9 8 4 0
7 4 8 0
-4 5 -3 0
5 1 7 0
-10 3 2 0
-9 -4 -6 0
6 -2 -1 0
-8 -5 10 0
-8 -10 -4 0
-4 5 9 0
1 6 2 0
8 -1 -2 0
8 -3 -7 0
-10 -7 -4 0
6 -5 4 0
-7 -4 -5 0
-1 -9 3 0
8 7 5 0
1 -10 -2 0
8 -9 5 0
-7 -10 1 0
6 -2 -3 0
6 5 -4 0
10 -4 -3 0
-3 1 -6 0
7 -3 2 0
-3 7 -1 0
1 -4 -6 0
-2 6 9 0
1 9 3 0
-8 1 6 0
-7 10 6 0
3 -10 4 0
-2 -7 -10 0
4 1 10 0
-10 -8 -5 0
-7 -10 4 0
